experiment/data/hgs-res/Vrp-Set-X-n856/Vrp-Set-X-n856-hgs/0.hgs1.vrp
NAME : 0
COMMENT : CVRP Instance
TYPE : CVRP
DIMENSION : 856
EDGE_WEIGHT_TYPE : EUC_2D
CAPACITY : 9
NODE_COORD_SECTION
1	500.0	500.0
2	440.0	732.0
3	221.0	348.0
4	117.0	545.0
5	493.0	645.0
6	135.0	12.0
7	775.0	997.0
8	745.0	444.0
9	950.0	311.0
10	530.0	150.0
11	900.0	508.0
12	48.0	519.0
13	269.0	217.0
14	722.0	349.0
15	480.0	733.0
16	977.0	422.0
17	999.0	220.0
18	636.0	332.0
19	851.0	162.0
20	559.0	567.0
21	389.0	69.0
22	529.0	835.0
23	303.0	427.0
24	400.0	638.0
25	894.0	904.0
26	482.0	109.0
27	579.0	800.0
28	184.0	82.0
29	669.0	753.0
30	906.0	424.0
31	374.0	692.0
32	174.0	613.0
33	75.0	37.0
34	38.0	563.0
35	838.0	157.0
36	710.0	709.0
37	176.0	67.0
38	449.0	326.0
39	71.0	389.0
40	710.0	115.0
41	237.0	547.0
42	530.0	27.0
43	631.0	223.0
44	171.0	342.0
45	226.0	65.0
46	6.0	998.0
47	24.0	635.0
48	668.0	165.0
49	318.0	608.0
50	429.0	82.0
51	212.0	237.0
52	853.0	126.0
53	387.0	47.0
54	677.0	144.0
55	111.0	790.0
56	957.0	32.0
57	511.0	647.0
58	457.0	561.0
59	86.0	687.0
60	290.0	456.0
61	473.0	563.0
62	807.0	725.0
63	461.0	468.0
64	739.0	235.0
65	257.0	340.0
66	588.0	545.0
67	6.0	311.0
68	268.0	976.0
69	552.0	414.0
70	994.0	946.0
71	452.0	534.0
72	422.0	545.0
73	248.0	611.0
74	43.0	366.0
75	977.0	96.0
76	822.0	580.0
77	940.0	650.0
78	86.0	263.0
79	715.0	99.0
80	668.0	981.0
81	424.0	638.0
82	297.0	607.0
83	251.0	282.0
84	237.0	413.0
85	202.0	573.0
86	181.0	385.0
87	126.0	528.0
88	386.0	811.0
89	978.0	846.0
90	70.0	99.0
91	333.0	357.0
92	49.0	870.0
93	157.0	734.0
94	627.0	268.0
95	818.0	433.0
96	738.0	555.0
97	350.0	909.0
98	337.0	926.0
99	978.0	59.0
100	42.0	595.0
101	870.0	933.0
102	19.0	120.0
103	165.0	679.0
104	131.0	984.0
105	232.0	755.0
106	319.0	417.0
107	187.0	376.0
108	251.0	482.0
109	657.0	219.0
110	209.0	397.0
111	800.0	377.0
112	228.0	116.0
113	566.0	559.0
114	490.0	156.0
115	216.0	547.0
116	964.0	677.0
117	85.0	897.0
118	292.0	807.0
119	600.0	893.0
120	938.0	222.0
121	543.0	747.0
122	572.0	976.0
123	569.0	59.0
124	712.0	574.0
125	971.0	515.0
126	616.0	306.0
127	695.0	837.0
128	421.0	821.0
129	604.0	995.0
130	537.0	957.0
131	1000.0	653.0
132	282.0	817.0
133	380.0	874.0
134	778.0	101.0
135	462.0	74.0
136	87.0	682.0
137	441.0	228.0
138	608.0	430.0
139	511.0	313.0
140	710.0	300.0
141	630.0	24.0
142	626.0	650.0
143	531.0	719.0
144	598.0	824.0
145	995.0	622.0
146	258.0	981.0
147	358.0	281.0
148	279.0	169.0
149	286.0	268.0
150	259.0	659.0
151	782.0	132.0
152	862.0	518.0
153	457.0	603.0
154	210.0	438.0
155	44.0	44.0
156	527.0	818.0
157	164.0	156.0
158	23.0	86.0
159	342.0	930.0
160	39.0	282.0
161	269.0	848.0
162	436.0	886.0
163	323.0	340.0
164	237.0	891.0
165	333.0	488.0
166	517.0	137.0
167	591.0	972.0
168	541.0	888.0
169	122.0	280.0
170	159.0	655.0
171	200.0	158.0
172	446.0	283.0
173	107.0	315.0
174	588.0	270.0
175	158.0	374.0
176	26.0	353.0
177	959.0	76.0
178	852.0	328.0
179	927.0	736.0
180	437.0	138.0
181	53.0	938.0
182	333.0	192.0
183	922.0	499.0
184	407.0	948.0
185	970.0	664.0
186	237.0	738.0
187	8.0	561.0
188	747.0	852.0
189	989.0	908.0
190	100.0	860.0
191	10.0	960.0
192	842.0	190.0
193	595.0	716.0
194	286.0	965.0
195	199.0	373.0
196	159.0	67.0
197	979.0	25.0
198	488.0	479.0
199	804.0	620.0
200	742.0	853.0
201	528.0	160.0
202	223.0	342.0
203	503.0	159.0
204	711.0	681.0
205	339.0	340.0
206	342.0	509.0
207	931.0	593.0
208	766.0	953.0
209	710.0	172.0
210	521.0	451.0
211	172.0	159.0
212	685.0	836.0
213	639.0	155.0
214	763.0	656.0
215	269.0	241.0
216	825.0	761.0
217	330.0	177.0
218	901.0	124.0
219	713.0	860.0
220	619.0	926.0
221	692.0	19.0
222	96.0	876.0
223	949.0	178.0
224	79.0	795.0
225	833.0	852.0
226	336.0	444.0
227	877.0	0.0
228	296.0	597.0
229	566.0	735.0
230	940.0	377.0
231	349.0	269.0
232	939.0	827.0
233	908.0	120.0
234	50.0	741.0
235	670.0	569.0
236	753.0	744.0
237	577.0	351.0
238	141.0	616.0
239	97.0	625.0
240	64.0	875.0
241	496.0	160.0
242	515.0	598.0
243	344.0	803.0
244	274.0	510.0
245	291.0	170.0
246	800.0	300.0
247	74.0	609.0
248	365.0	207.0
249	791.0	396.0
250	453.0	848.0
251	405.0	191.0
252	395.0	290.0
253	525.0	743.0
254	260.0	385.0
255	408.0	837.0
256	1.0	346.0
257	231.0	504.0
258	837.0	572.0
259	606.0	473.0
260	900.0	729.0
261	346.0	868.0
262	123.0	80.0
263	477.0	169.0
264	383.0	59.0
265	510.0	410.0
266	890.0	101.0
267	952.0	635.0
268	825.0	722.0
269	68.0	598.0
270	234.0	841.0
271	911.0	720.0
272	172.0	367.0
273	569.0	289.0
274	84.0	19.0
275	694.0	916.0
276	454.0	412.0
277	261.0	233.0
278	693.0	375.0
279	588.0	854.0
280	276.0	538.0
281	599.0	569.0
282	142.0	158.0
283	338.0	805.0
284	324.0	194.0
285	739.0	325.0
286	845.0	639.0
287	638.0	182.0
288	858.0	93.0
289	40.0	923.0
290	37.0	599.0
291	638.0	39.0
292	218.0	714.0
293	568.0	674.0
294	288.0	840.0
295	439.0	570.0
296	325.0	801.0
297	587.0	278.0
298	992.0	674.0
299	597.0	608.0
300	174.0	865.0
301	65.0	330.0
302	872.0	434.0
303	620.0	129.0
304	339.0	681.0
305	178.0	811.0
306	478.0	966.0
307	469.0	749.0
308	475.0	791.0
309	799.0	594.0
310	692.0	130.0
311	59.0	223.0
312	811.0	2.0
313	5.0	946.0
314	219.0	305.0
315	759.0	951.0
316	656.0	889.0
317	582.0	18.0
318	97.0	885.0
319	888.0	467.0
320	899.0	286.0
321	512.0	358.0
322	188.0	776.0
323	220.0	951.0
324	503.0	801.0
325	483.0	402.0
326	685.0	904.0
327	483.0	722.0
328	13.0	301.0
329	387.0	976.0
330	607.0	709.0
331	857.0	739.0
332	51.0	422.0
333	818.0	797.0
334	302.0	646.0
335	474.0	101.0
336	817.0	66.0
337	573.0	973.0
338	948.0	686.0
339	922.0	552.0
340	586.0	899.0
341	153.0	503.0
342	47.0	817.0
343	740.0	970.0
344	216.0	852.0
345	261.0	776.0
346	935.0	540.0
347	920.0	879.0
348	642.0	623.0
349	305.0	71.0
350	268.0	373.0
351	409.0	940.0
352	374.0	176.0
353	894.0	60.0
354	539.0	352.0
355	605.0	457.0
356	4.0	240.0
357	340.0	303.0
358	563.0	524.0
359	861.0	875.0
360	700.0	810.0
361	160.0	753.0
362	985.0	455.0
363	981.0	276.0
364	708.0	646.0
365	575.0	249.0
366	777.0	725.0
367	724.0	888.0
368	853.0	773.0
369	4.0	27.0
370	743.0	430.0
371	301.0	574.0
372	38.0	983.0
373	575.0	209.0
374	10.0	683.0
375	878.0	342.0
376	745.0	333.0
377	616.0	311.0
378	537.0	110.0
379	70.0	839.0
380	531.0	647.0
381	157.0	736.0
382	609.0	356.0
383	450.0	852.0
384	534.0	11.0
385	436.0	279.0
386	340.0	578.0
387	41.0	809.0
388	971.0	282.0
389	389.0	628.0
390	171.0	951.0
391	821.0	278.0
392	633.0	578.0
393	158.0	858.0
394	374.0	163.0
395	219.0	471.0
396	392.0	784.0
397	586.0	937.0
398	546.0	923.0
399	619.0	737.0
400	700.0	50.0
401	722.0	223.0
402	112.0	450.0
403	857.0	66.0
404	81.0	295.0
405	314.0	964.0
406	829.0	981.0
407	723.0	590.0
408	645.0	700.0
409	318.0	800.0
410	277.0	268.0
411	459.0	81.0
412	573.0	211.0
413	391.0	259.0
414	368.0	81.0
415	262.0	451.0
416	629.0	44.0
417	390.0	264.0
418	842.0	703.0
419	780.0	254.0
420	653.0	177.0
421	882.0	625.0
422	763.0	432.0
423	615.0	183.0
424	62.0	855.0
425	629.0	543.0
426	27.0	83.0
427	822.0	574.0
428	355.0	86.0
429	102.0	110.0
430	859.0	489.0
431	410.0	900.0
432	519.0	683.0
433	111.0	12.0
434	957.0	366.0
435	848.0	474.0
436	265.0	184.0
437	985.0	701.0
438	862.0	488.0
439	215.0	888.0
440	945.0	515.0
441	76.0	204.0
442	553.0	988.0
443	22.0	32.0
444	817.0	463.0
445	938.0	553.0
446	441.0	911.0
447	944.0	473.0
448	120.0	85.0
449	139.0	101.0
450	551.0	214.0
451	422.0	750.0
452	373.0	976.0
453	196.0	122.0
454	312.0	75.0
455	870.0	353.0
456	25.0	46.0
457	470.0	958.0
458	184.0	140.0
459	890.0	462.0
460	841.0	551.0
461	843.0	479.0
462	82.0	88.0
463	979.0	491.0
464	898.0	582.0
465	439.0	811.0
466	8.0	173.0
467	199.0	182.0
468	239.0	151.0
469	960.0	334.0
470	67.0	99.0
471	49.0	100.0
472	253.0	120.0
473	124.0	84.0
474	64.0	183.0
475	453.0	987.0
476	490.0	869.0
477	153.0	111.0
478	421.0	756.0
479	862.0	440.0
480	170.0	166.0
481	887.0	544.0
482	854.0	544.0
483	58.0	109.0
484	135.0	102.0
485	408.0	787.0
486	44.0	101.0
487	859.0	469.0
488	865.0	487.0
489	845.0	522.0
490	350.0	875.0
491	24.0	154.0
492	945.0	452.0
493	732.0	438.0
494	322.0	797.0
495	569.0	889.0
496	853.0	466.0
497	286.0	3.0
498	19.0	558.0
499	44.0	168.0
500	482.0	967.0
501	271.0	127.0
502	425.0	909.0
503	405.0	777.0
504	921.0	499.0
505	513.0	901.0
506	811.0	488.0
507	541.0	920.0
508	41.0	240.0
509	876.0	405.0
510	449.0	871.0
511	786.0	558.0
512	467.0	684.0
513	75.0	150.0
514	827.0	446.0
515	625.0	441.0
516	122.0	117.0
517	321.0	913.0
518	935.0	443.0
519	378.0	902.0
520	95.0	48.0
521	939.0	576.0
522	991.0	561.0
523	887.0	479.0
524	108.0	102.0
525	822.0	451.0
526	137.0	252.0
527	788.0	543.0
528	556.0	988.0
529	769.0	375.0
530	445.0	848.0
531	446.0	965.0
532	925.0	421.0
533	674.0	544.0
534	117.0	30.0
535	388.0	987.0
536	119.0	18.0
537	439.0	962.0
538	134.0	297.0
539	614.0	521.0
540	887.0	325.0
541	467.0	903.0
542	772.0	461.0
543	423.0	944.0
544	379.0	846.0
545	916.0	509.0
546	983.0	447.0
547	667.0	885.0
548	96.0	150.0
549	465.0	911.0
550	96.0	17.0
551	425.0	963.0
552	93.0	201.0
553	132.0	93.0
554	671.0	926.0
555	901.0	468.0
556	93.0	287.0
557	795.0	581.0
558	741.0	514.0
559	119.0	223.0
560	503.0	964.0
561	849.0	388.0
562	80.0	58.0
563	116.0	81.0
564	123.0	266.0
565	683.0	363.0
566	77.0	114.0
567	872.0	520.0
568	187.0	62.0
569	83.0	158.0
570	918.0	677.0
571	19.0	198.0
572	909.0	427.0
573	937.0	395.0
574	11.0	176.0
575	80.0	88.0
576	72.0	143.0
577	510.0	919.0
578	25.0	87.0
579	421.0	825.0
580	855.0	443.0
581	823.0	522.0
582	468.0	802.0
583	2.0	112.0
584	96.0	91.0
585	647.0	389.0
586	876.0	475.0
587	422.0	970.0
588	705.0	454.0
589	151.0	897.0
590	853.0	420.0
591	883.0	484.0
592	27.0	44.0
593	852.0	479.0
594	154.0	38.0
595	285.0	921.0
596	50.0	196.0
597	956.0	449.0
598	259.0	863.0
599	702.0	637.0
600	422.0	975.0
601	413.0	885.0
602	432.0	847.0
603	112.0	263.0
604	908.0	625.0
605	783.0	344.0
606	422.0	744.0
607	372.0	987.0
608	860.0	387.0
609	168.0	96.0
610	358.0	850.0
611	476.0	813.0
612	62.0	117.0
613	539.0	970.0
614	278.0	215.0
615	854.0	616.0
616	379.0	769.0
617	418.0	899.0
618	128.0	124.0
619	46.0	207.0
620	466.0	816.0
621	890.0	559.0
622	688.0	555.0
623	826.0	582.0
624	127.0	126.0
625	879.0	499.0
626	401.0	805.0
627	384.0	826.0
628	320.0	775.0
629	204.0	336.0
630	866.0	515.0
631	801.0	544.0
632	117.0	139.0
633	852.0	498.0
634	397.0	949.0
635	405.0	865.0
636	724.0	356.0
637	414.0	830.0
638	131.0	31.0
639	318.0	200.0
640	946.0	468.0
641	1.0	157.0
642	542.0	729.0
643	245.0	352.0
644	539.0	905.0
645	827.0	317.0
646	376.0	836.0
647	878.0	519.0
648	212.0	724.0
649	876.0	516.0
650	96.0	124.0
651	939.0	557.0
652	504.0	915.0
653	380.0	841.0
654	149.0	149.0
655	804.0	494.0
656	330.0	999.0
657	104.0	67.0
658	283.0	883.0
659	877.0	601.0
660	866.0	497.0
661	138.0	48.0
662	814.0	455.0
663	970.0	535.0
664	450.0	898.0
665	220.0	93.0
666	208.0	26.0
667	317.0	96.0
668	921.0	488.0
669	903.0	248.0
670	95.0	80.0
671	849.0	498.0
672	816.0	494.0
673	52.0	141.0
674	180.0	59.0
675	69.0	98.0
676	199.0	69.0
677	884.0	460.0
678	879.0	525.0
679	57.0	102.0
680	978.0	705.0
681	929.0	486.0
682	152.0	106.0
683	691.0	634.0
684	456.0	977.0
685	391.0	789.0
686	442.0	872.0
687	754.0	759.0
688	854.0	615.0
689	820.0	450.0
690	326.0	986.0
691	71.0	69.0
692	315.0	718.0
693	377.0	938.0
694	44.0	74.0
695	290.0	921.0
696	899.0	478.0
697	24.0	197.0
698	438.0	957.0
699	142.0	147.0
700	437.0	837.0
701	742.0	549.0
702	288.0	844.0
703	792.0	425.0
704	413.0	913.0
705	447.0	938.0
706	849.0	496.0
707	262.0	65.0
708	840.0	466.0
709	533.0	687.0
710	810.0	536.0
711	213.0	160.0
712	860.0	414.0
713	884.0	459.0
714	4.0	153.0
715	447.0	930.0
716	140.0	44.0
717	521.0	878.0
718	575.0	779.0
719	442.0	900.0
720	877.0	579.0
721	893.0	487.0
722	73.0	13.0
723	394.0	886.0
724	511.0	949.0
725	474.0	772.0
726	812.0	425.0
727	684.0	471.0
728	458.0	971.0
729	132.0	137.0
730	797.0	351.0
731	401.0	904.0
732	132.0	115.0
733	386.0	268.0
734	856.0	456.0
735	953.0	616.0
736	382.0	794.0
737	548.0	895.0
738	861.0	525.0
739	372.0	780.0
740	967.0	425.0
741	534.0	912.0
742	52.0	157.0
743	396.0	888.0
744	82.0	60.0
745	856.0	523.0
746	12.0	90.0
747	8.0	208.0
748	303.0	67.0
749	497.0	721.0
750	454.0	984.0
751	120.0	69.0
752	831.0	458.0
753	786.0	524.0
754	40.0	111.0
755	347.0	868.0
756	377.0	932.0
757	296.0	934.0
758	896.0	547.0
759	884.0	450.0
760	812.0	534.0
761	926.0	500.0
762	380.0	921.0
763	423.0	888.0
764	797.0	512.0
765	848.0	444.0
766	716.0	514.0
767	412.0	903.0
768	871.0	532.0
769	402.0	885.0
770	870.0	564.0
771	826.0	512.0
772	529.0	867.0
773	451.0	999.0
774	852.0	522.0
775	406.0	859.0
776	51.0	110.0
777	919.0	577.0
778	824.0	407.0
779	411.0	883.0
780	794.0	483.0
781	46.0	105.0
782	274.0	236.0
783	430.0	972.0
784	854.0	533.0
785	336.0	959.0
786	813.0	702.0
787	210.0	304.0
788	460.0	867.0
789	315.0	915.0
790	454.0	857.0
791	905.0	380.0
792	831.0	580.0
793	399.0	106.0
794	97.0	106.0
795	805.0	499.0
796	904.0	561.0
797	420.0	930.0
798	876.0	448.0
799	102.0	164.0
800	74.0	112.0
801	139.0	43.0
802	370.0	995.0
803	849.0	441.0
804	405.0	938.0
805	57.0	100.0
806	78.0	81.0
807	170.0	77.0
808	959.0	379.0
809	347.0	913.0
810	845.0	478.0
811	316.0	803.0
812	115.0	74.0
813	538.0	906.0
814	939.0	530.0
815	405.0	891.0
816	235.0	819.0
817	982.0	463.0
818	817.0	482.0
819	463.0	971.0
820	847.0	370.0
821	200.0	145.0
822	769.0	970.0
823	712.0	624.0
824	910.0	566.0
825	867.0	531.0
826	352.0	966.0
827	490.0	865.0
828	451.0	831.0
829	97.0	85.0
830	408.0	920.0
831	869.0	485.0
832	341.0	453.0
833	10.0	127.0
834	1.0	25.0
835	918.0	775.0
836	277.0	884.0
837	847.0	483.0
838	884.0	435.0
839	745.0	448.0
840	118.0	13.0
841	222.0	755.0
842	695.0	341.0
843	25.0	18.0
844	380.0	843.0
845	949.0	466.0
846	436.0	877.0
847	912.0	446.0
848	405.0	857.0
849	824.0	490.0
850	486.0	866.0
851	568.0	430.0
852	935.0	513.0
853	821.0	687.0
854	367.0	814.0
855	33.0	97.0
856	411.0	722.0
DEMAND_SECTION
1	0
2	1
3	1
4	1
5	1
6	1
7	1
8	1
9	1
10	1
11	1
12	1
13	1
14	1
15	1
16	1
17	1
18	1
19	1
20	1
21	1
22	1
23	1
24	1
25	1
26	1
27	1
28	1
29	1
30	1
31	1
32	1
33	1
34	1
35	1
36	1
37	1
38	1
39	1
40	1
41	1
42	1
43	1
44	1
45	1
46	1
47	1
48	1
49	1
50	1
51	1
52	1
53	1
54	1
55	1
56	1
57	1
58	1
59	1
60	1
61	1
62	1
63	1
64	1
65	1
66	1
67	1
68	1
69	1
70	1
71	1
72	1
73	1
74	1
75	1
76	1
77	1
78	1
79	1
80	1
81	1
82	1
83	1
84	1
85	1
86	1
87	1
88	1
89	1
90	1
91	1
92	1
93	1
94	1
95	1
96	1
97	1
98	1
99	1
100	1
101	1
102	1
103	1
104	1
105	1
106	1
107	1
108	1
109	1
110	1
111	1
112	1
113	1
114	1
115	1
116	1
117	1
118	1
119	1
120	1
121	1
122	1
123	1
124	1
125	1
126	1
127	1
128	1
129	1
130	1
131	1
132	1
133	1
134	1
135	1
136	1
137	1
138	1
139	1
140	1
141	1
142	1
143	1
144	1
145	1
146	1
147	1
148	1
149	1
150	1
151	1
152	1
153	1
154	1
155	1
156	1
157	1
158	1
159	1
160	1
161	1
162	1
163	1
164	1
165	1
166	1
167	1
168	1
169	1
170	1
171	1
172	1
173	1
174	1
175	1
176	1
177	1
178	1
179	1
180	1
181	1
182	1
183	1
184	1
185	1
186	1
187	1
188	1
189	1
190	1
191	1
192	1
193	1
194	1
195	1
196	1
197	1
198	1
199	1
200	1
201	1
202	1
203	1
204	1
205	1
206	1
207	1
208	1
209	1
210	1
211	1
212	1
213	1
214	1
215	1
216	1
217	1
218	1
219	1
220	1
221	1
222	1
223	1
224	1
225	1
226	1
227	1
228	1
229	1
230	1
231	1
232	1
233	1
234	1
235	1
236	1
237	1
238	1
239	1
240	1
241	1
242	1
243	1
244	1
245	1
246	1
247	1
248	1
249	1
250	1
251	1
252	1
253	1
254	1
255	1
256	1
257	1
258	1
259	1
260	1
261	1
262	1
263	1
264	1
265	1
266	1
267	1
268	1
269	1
270	1
271	1
272	1
273	1
274	1
275	1
276	1
277	1
278	1
279	1
280	1
281	1
282	1
283	1
284	1
285	1
286	1
287	1
288	1
289	1
290	1
291	1
292	1
293	1
294	1
295	1
296	1
297	1
298	1
299	1
300	1
301	1
302	1
303	1
304	1
305	1
306	1
307	1
308	1
309	1
310	1
311	1
312	1
313	1
314	1
315	1
316	1
317	1
318	1
319	1
320	1
321	1
322	1
323	1
324	1
325	1
326	1
327	1
328	1
329	1
330	1
331	1
332	1
333	1
334	1
335	1
336	1
337	1
338	1
339	1
340	1
341	1
342	1
343	1
344	1
345	1
346	1
347	1
348	1
349	1
350	1
351	1
352	1
353	1
354	1
355	1
356	1
357	1
358	1
359	1
360	1
361	1
362	1
363	1
364	1
365	1
366	1
367	1
368	1
369	1
370	1
371	1
372	1
373	1
374	1
375	1
376	1
377	1
378	1
379	1
380	1
381	1
382	1
383	1
384	1
385	1
386	1
387	1
388	1
389	1
390	1
391	1
392	1
393	1
394	1
395	1
396	1
397	1
398	1
399	1
400	1
401	1
402	1
403	1
404	1
405	1
406	1
407	1
408	1
409	1
410	1
411	1
412	1
413	1
414	1
415	1
416	1
417	1
418	1
419	1
420	1
421	1
422	1
423	1
424	1
425	1
426	1
427	1
428	1
429	1
430	1
431	1
432	1
433	1
434	1
435	1
436	1
437	1
438	1
439	1
440	1
441	1
442	1
443	1
444	1
445	1
446	1
447	1
448	1
449	1
450	1
451	1
452	1
453	1
454	1
455	1
456	1
457	1
458	1
459	1
460	1
461	1
462	1
463	1
464	1
465	1
466	1
467	1
468	1
469	1
470	1
471	1
472	1
473	1
474	1
475	1
476	1
477	1
478	1
479	1
480	1
481	1
482	1
483	1
484	1
485	1
486	1
487	1
488	1
489	1
490	1
491	1
492	1
493	1
494	1
495	1
496	1
497	1
498	1
499	1
500	1
501	1
502	1
503	1
504	1
505	1
506	1
507	1
508	1
509	1
510	1
511	1
512	1
513	1
514	1
515	1
516	1
517	1
518	1
519	1
520	1
521	1
522	1
523	1
524	1
525	1
526	1
527	1
528	1
529	1
530	1
531	1
532	1
533	1
534	1
535	1
536	1
537	1
538	1
539	1
540	1
541	1
542	1
543	1
544	1
545	1
546	1
547	1
548	1
549	1
550	1
551	1
552	1
553	1
554	1
555	1
556	1
557	1
558	1
559	1
560	1
561	1
562	1
563	1
564	1
565	1
566	1
567	1
568	1
569	1
570	1
571	1
572	1
573	1
574	1
575	1
576	1
577	1
578	1
579	1
580	1
581	1
582	1
583	1
584	1
585	1
586	1
587	1
588	1
589	1
590	1
591	1
592	1
593	1
594	1
595	1
596	1
597	1
598	1
599	1
600	1
601	1
602	1
603	1
604	1
605	1
606	1
607	1
608	1
609	1
610	1
611	1
612	1
613	1
614	1
615	1
616	1
617	1
618	1
619	1
620	1
621	1
622	1
623	1
624	1
625	1
626	1
627	1
628	1
629	1
630	1
631	1
632	1
633	1
634	1
635	1
636	1
637	1
638	1
639	1
640	1
641	1
642	1
643	1
644	1
645	1
646	1
647	1
648	1
649	1
650	1
651	1
652	1
653	1
654	1
655	1
656	1
657	1
658	1
659	1
660	1
661	1
662	1
663	1
664	1
665	1
666	1
667	1
668	1
669	1
670	1
671	1
672	1
673	1
674	1
675	1
676	1
677	1
678	1
679	1
680	1
681	1
682	1
683	1
684	1
685	1
686	1
687	1
688	1
689	1
690	1
691	1
692	1
693	1
694	1
695	1
696	1
697	1
698	1
699	1
700	1
701	1
702	1
703	1
704	1
705	1
706	1
707	1
708	1
709	1
710	1
711	1
712	1
713	1
714	1
715	1
716	1
717	1
718	1
719	1
720	1
721	1
722	1
723	1
724	1
725	1
726	1
727	1
728	1
729	1
730	1
731	1
732	1
733	1
734	1
735	1
736	1
737	1
738	1
739	1
740	1
741	1
742	1
743	1
744	1
745	1
746	1
747	1
748	1
749	1
750	1
751	1
752	1
753	1
754	1
755	1
756	1
757	1
758	1
759	1
760	1
761	1
762	1
763	1
764	1
765	1
766	1
767	1
768	1
769	1
770	1
771	1
772	1
773	1
774	1
775	1
776	1
777	1
778	1
779	1
780	1
781	1
782	1
783	1
784	1
785	1
786	1
787	1
788	1
789	1
790	1
791	1
792	1
793	1
794	1
795	1
796	1
797	1
798	1
799	1
800	1
801	1
802	1
803	1
804	1
805	1
806	1
807	1
808	1
809	1
810	1
811	1
812	1
813	1
814	1
815	1
816	1
817	1
818	1
819	1
820	1
821	1
822	1
823	1
824	1
825	1
826	1
827	1
828	1
829	1
830	1
831	1
832	1
833	1
834	1
835	1
836	1
837	1
838	1
839	1
840	1
841	1
842	1
843	1
844	1
845	1
846	1
847	1
848	1
849	1
850	1
851	1
852	1
853	1
854	1
855	1
856	1
DEPOT_SECTION
1
-1
EOF
