experiment/data/hgs-res/Vrp-Set-X-n856/Vrp-Set-X-n856-hgs/0.hgs1.tour
Route #1: 300 327 66 255 175 73 38 331 401
Route #2: 83 109 194 106 271 174 85 153 414
Route #3: 43 172 403 555 77 602 563 168 537
Route #4: 349 64 313 786 628 201 2 642 253
Route #5: 525 310 618 696 570 746 355 507 159
Route #6: 831 225 22 105 90 162 204 62 197
Route #7: 473 498 490 713 640 465 573 595 440
Route #8: 558 551 741 672 575 512 568 798 50
Route #9: 101 832 582 745 157 577 425 854 753
Route #10: 482 678 804 470 485 780 775 611 547
Route #11: 428 793 89 674 469 799 565 649 631
Route #12: 693 455 591 442 368 833 842 154 690
Route #13: 523 583 461 574 805 561 743 669 828
Route #14: 710 170 210 156 653 698 281 479 466
Route #15: 728 623 617 515 731 483 448 681 476
Route #16: 552 472 447 562 811 656 750 261 608
Route #17: 356 148 409 214 781 613 12 276 82
Route #18: 533 535 839 432 549 273 721 32 519
Route #19: 147 500 471 111 452 457 820 467 435
Route #20: 195 660 715 800 637 5 593 665 496
Route #21: 664 27 806 36 673 567 675 44 706
Route #22: 146 230 638 283 181 216 393 351 247
Route #23: 244 666 348 747 453 427 413 792 250
Route #24: 324 37 171 384 412 416 732 251 275
Route #25: 179 20 263 52 49 134 410 334 25
Route #26: 136 262 113 240 202 165 9 200 138
Route #27: 302 415 290 140 316 383 41 122 377
Route #28: 272 296 173 364 372 411 449 320 264
Route #29: 422 212 220 399 78 39 309 53 108
Route #30: 209 68 353 236 125 376 17 381 850
Route #31: 139 63 400 208 47 419 286 42 93
Route #32: 34 51 287 265 352 402 335 133 150
Route #33: 217 232 74 176 98 196 55 226 311
Route #34: 418 191 18 222 16 119 668 390 245
Route #35: 137 277 635 13 375 284 841 564 584
Route #36: 604 729 177 539 374 454 819 110 528
Route #37: 229 807 433 468 8 387 362 319 644
Route #38: 258 726 587 838 7 369 492 514 354
Route #39: 560 607 508 790 572 531 571 29 837
Route #40: 764 802 579 478 301 711 589 777 248
Route #41: 541 661 688 524 513 94 725 702 421
Route #42: 846 517 739 15 545 361 816 596 491
Route #43: 733 797 758 712 676 458 318 486 495
Route #44: 443 751 707 434 592 836 809 460 817
Route #45: 429 437 487 830 590 522 720 624 659
Route #46: 654 794 671 670 632 705 848 505 779
Route #47: 10 544 503 182 760 680 667 695 585
Route #48: 520 521 662 124 462 844 639 446 554
Route #49: 824 767 677 646 648 566 629 151 770
Route #50: 459 481 783 737 744 773 488 580 763
Route #51: 851 439 813 345 444 650 338 757 480
Route #52: 532 700 526 630 709 759 752 557 765
Route #53: 769 620 795 823 463 658 687 614 198
Route #54: 95 510 426 257 791 622 75 308 556
Route #55: 285 420 603 76 266 734 206 776 719
Route #56: 144 130 297 436 679 184 115 337 569
Route #57: 19 112 280 391 234 424 538 65 357
Route #58: 621 123 406 822 363 598 682 347 298
Route #59: 203 215 367 834 178 270 259 417 852
Route #60: 141 35 235 686 365 61 267 785 213
Route #61: 332 358 24 346 69 188 88 231 330
Route #62: 366 342 314 207 821 6 405 100 224
Route #63: 398 211 126 218 199 187 359 28 407
Route #64: 219 166 128 79 553 274 325 546 315
Route #65: 292 329 192 228 120 641 142 708 379
Route #66: 717 26 143 278 118 339 494 155 252
Route #67: 506 397 129 612 441 527 121 336 396
Route #68: 21 771 167 736 643 812 740 504 716
Route #69: 540 548 456 305 499 559 723 576 651
Route #70: 4 511 306 14 326 748 431 56 241
Route #71: 610 249 382 789 787 849 475 826 323
Route #72: 714 704 530 772 474 749 683 727 818
Route #73: 529 509 663 445 718 161 845 685 601
Route #74: 464 127 578 699 827 619 581 307 724
Route #75: 697 536 782 599 586 550 542 796 501
Route #76: 722 742 730 829 703 766 430 616 762
Route #77: 350 183 328 534 801 606 451 633 803
Route #78: 254 847 774 634 768 814 600 778 636
Route #79: 1 605 450 477 502 484 684 395 855
Route #80: 755 692 825 655 689 404 784 158 97
Route #81: 132 518 761 808 96 489 260 754 609
Route #82: 625 87 626 652 843 543 645 853 735
Route #83: 516 788 756 193 67 145 322 594 694
Route #84: 30 627 493 408 295 282 242 738 615
Route #85: 117 131 160 597 835 657 701 293 810
Route #86: 60 57 294 152 80 23 388 71 70
Route #87: 344 815 269 343 163 438 299 392 304
Route #88: 389 103 371 45 190 312 288 180 588
Route #89: 321 189 221 317 116 239 91 423 378
Route #90: 333 149 291 647 840 104 185 691 303
Route #91: 92 380 360 54 223 341 386 233 102
Route #92: 31 237 238 46 373 58 135 169 72
Route #93: 385 48 81 227 370 279 243 164 205
Route #94: 246 268 99 289 186 497 33 11 256
Route #95: 40 114 84 3 86 340 394 107 59
Cost 89151.7
